# General settings:
ENCUT  = 450
ADDGRID = True
PREC   = Accurate
LCHARG = .FALSE.
LWAVE  = .FALSE.
GGA = PS
ALGO = Normal

# DFPT
IBRION = 8
ISYM = -1
ISIF = 2
LEPSILON = True
LREAL = False
NSW = 1  # One ionic step  
EDIFF = 1E-8  
EDIFFG = -5E-4

