EDIFF = 1E-8
EDIFFG = -5E-4
ENCUT = 585
IBRION = 2
ISIF = 3
NELM = 100
NELMIN = 5
NSW = 99
PREC = Accurate
LASPH = True

#PS
GGA = PS
ALGO = Fast
ISMEAR  = 0
SIGMA   = 0.05

#KPAR = 
