EDIFF = 1E-8
EDIFFG = -5E-4
ENCUT = 585
IBRION = 2
ISIF = 3
NELM = 150
NELMIN = 5
NSW = 99
PREC = Accurate
LASPH = True 

#KPAR = 19

#PBE0
GGA = PE
LHFCALC = True
ALGO = Damped
TIME = 0.5
ISMEAR  = 0
SIGMA   = 0.01
