ADDGRID = True
GGA = PS
ALGO = Normal
EDIFF = 1e-08
ENCUT = 450  # Need ENCUT/ENMAX included in the INCAR for vaspup2.0 to converge-test this parameter
IBRION = -1  # singleshot calc
ISMEAR = -5  # ISMEAR = -5 will give better DOS convergence wrt kpoints (but won't work with 1x1x1 grid need = 0)
ISPIN = 1  # 2 if system is magnetic
LORBIT = 11  # lm-projected DOS info
LREAL = False
NEDOS = 2000
NELM = 200
NSW = 1
PREC = Accurate
SIGMA = 0.05
LWAVE = True
LASPH = True
